sat
(
  (define-fun P () String
    "a")
  (define-fun I () String
    "")
  (define-fun H () String
    "")
  (define-fun R () String
    "")
  (define-fun S () String
    "abababbbbaa")
  (define-fun G () String
    "")
  (define-fun J () String
    "aaaaaaa")
  (define-fun V () String
    "")
  (define-fun K () String
    "aaaaab")
  (define-fun M () String
    "")
  (define-fun N () String
    "b")
)
